mmax              = 10
nmax              = 5
dx                = 100.0
dy                = 100.0
x0                = 0.0
y0                = 0.0
rotation          = 0.0
tref              = 20000101 000000
tstart            = 20000101 000000
tstop             = 20000101 001000
tspinup           = 0.0
dtmapout          = 600.0
dtmaxout          = 600.0
dthisout          = 600.0
dtout             = 600.0
alpha             = 0.5
theta             = 1.0
manning           = 0.02
zsini             = 0.0
huthresh          = 0.001
inputformat       = asc
outputformat      = net
depfile           = sfincs.dep
mskfile           = sfincs.msk
inifile           = sfincs.ini
weirfile          = sfincs.weir
obsfile           = sfincs.obs
storevel          = 1
storevelmax       = 1
storefluxmax      = 1
