mmax            = 10
nmax            = 10
dx              = 200.0
dy              = 200.0
x0              = 0.0
y0              = 0.0
rotation        = 0.0
tref            = 20000101 000000
tstart          = 20000101 000000
tstop           = 20000101 003000
dtmapout        = 60.0
dtmaxout        = 0.0
dthisout        = 0.0
dtout           = 60.0
inputformat     = asc
outputformat    = net
advection       = 1
alpha           = 0.5
theta           = 1.0
huthresh        = 0.01
zsini           = 0.0
manning         = 0.024
depfile         = sfincs.dep
mskfile         = sfincs.msk
amufile         = sfincs.amu
amvfile         = sfincs.amv
ampfile         = sfincs.amp
amprfile        = sfincs.ampr
spwfile         = sfincs.spw
storevel        = 1
storemeteo      = 1
storemaxwind    = 1
storecumprcp    = 1
